peakDumbCharging = 11100; 
Machine = anon_enum(16); 
machineSpeed = [3700,3700,3700,3700,3700,3700,3700,3700,3700,3700,3700,3700,3700,3700,3700,3700]; 
machineLoad = [3700,3700,3700,3700,3700,3700,3700,3700,3700,3700,3700,3700,3700,3700,3700,3700]; 
Car = anon_enum(12); 
demandCar = [22480,1120,6480,9920,800,4160,2360,9600,15000,3040,15200,6240]; 
arrivalCar = [63,62,61,57,56,55,53,52,50,49,47,46]; 
departureCar = [71,64,64,62,58,58,54,59,58,51,52,49]; 
